% Generado automaticamente desde C:/Users/andres/Desktop/SEPTIMO SEMESTRE/ADAII/proyecto_final/Proyecto-Optimizacion-ADA2/BateriaPruebas_2025_2_P2-txt/Prueba5.txt

n = 10;
m = 3;
ct = 25.0;
maxMovs = 5.0;
v = [0.271, 0.305, 0.913];
p = [2, 5, 3];
s = [| 1, 1, 0 | 0, 3, 2 | 1, 2, 0 |];
